verification/cryptoline.main.log.smt2
(set-logic NIA)
(define-fun-rec expn ((x Int) (n Int)) Int (ite (= n 0) 1 (* x (expn x (- n 1)))))
(declare-fun a_0 () Int)
(declare-fun b_0 () Int)
(assert (and (<= (- 9223372036854775808) b_0) (<= b_0 9223372036854775807)))
(assert (and (<= (- 9223372036854775808) a_0) (<= a_0 9223372036854775807)))
(assert true)
(assert (= (+ (expn a_0 2) (expn b_0 2)) 0))
(assert (not (= b_0 0)))
(check-sat)
